NAME : mcpfd.131.tour
COMMENT : Length = 131
COMMENT : Found by LKH [Keld Helsgaun] Sat Aug 24 18:51:10 2024
TYPE : TOUR
DIMENSION : 20
TOUR_SECTION
1
10
18
3
15
13
7
12
19
2
11
17
4
20
5
6
8
9
14
16
-1
EOF
